(set-logic QF_NRA)
(declare-const aleks_t0_0 Real)
(declare-const aleks_t0_1 Real)
(declare-const aleks_t0_2 Real)
(declare-const aleks_t0_3 Real)
(declare-const aleks_t1_0 Real)
(declare-const aleks_t1_1 Real)
(declare-const aleks_t1_2 Real)
(declare-const aleks_t1_3 Real)
(declare-const aleks_t2_0 Real)
(declare-const aleks_t2_1 Real)
(declare-const aleks_t2_2 Real)
(declare-const aleks_t2_3 Real)
(declare-const aleks_t3_0 Real)
(declare-const aleks_t3_1 Real)
(declare-const aleks_t3_2 Real)
(declare-const aleks_t3_3 Real)
(declare-const aleks_t4_0 Real)
(declare-const aleks_t4_1 Real)
(declare-const aleks_t4_2 Real)
(declare-const aleks_t4_3 Real)
(declare-const l_t3t4_0 Real)
(declare-const l_t3t4_1 Real)
(declare-const l_t3t4_2 Real)
(declare-const l_t3t4_3 Real)
(declare-const l_t2t3_0 Real)
(declare-const l_t2t3_1 Real)
(declare-const l_t2t3_2 Real)
(declare-const l_t2t3_3 Real)
(declare-const l_t1t2_0 Real)
(declare-const l_t1t2_1 Real)
(declare-const l_t1t2_2 Real)
(declare-const l_t1t2_3 Real)
(declare-const l_t0t1_0 Real)
(declare-const l_t0t1_1 Real)
(declare-const l_t0t1_2 Real)
(declare-const l_t0t1_3 Real)
(declare-const r_t3t4_0 Real)
(declare-const r_t3t4_1 Real)
(declare-const r_t3t4_2 Real)
(declare-const r_t3t4_3 Real)
(declare-const r_t2t3_0 Real)
(declare-const r_t2t3_1 Real)
(declare-const r_t2t3_2 Real)
(declare-const r_t2t3_3 Real)
(declare-const r_t1t2_0 Real)
(declare-const r_t1t2_1 Real)
(declare-const r_t1t2_2 Real)
(declare-const r_t1t2_3 Real)
(declare-const r_t0t1_0 Real)
(declare-const r_t0t1_1 Real)
(declare-const r_t0t1_2 Real)
(declare-const r_t0t1_3 Real)
(declare-const payout_1 Real)
(declare-const payout_2 Real)
(declare-const payout_3 Real)
(declare-const from_1 Real)
(declare-const from_2 Real)
(declare-const from_3 Real)
(declare-const to_1 Real)
(declare-const to_2 Real)
(declare-const to_3 Real)
(declare-const fee_t3t4 Real)
(declare-const fee_t2t3 Real)
(declare-const fee_t1t2 Real)
(declare-const fee_t0t1 Real)
(assert (= (/ 100 1) l_t0t1_0))
(assert (= (/ 100 1) r_t0t1_0))
(assert (= (/ 1 3) fee_t0t1))
(assert (= (/ 100 1) l_t1t2_0))
(assert (= (/ 100 1) r_t1t2_0))
(assert (= (/ 1 3) fee_t1t2))
(assert (= (/ 100 1) l_t2t3_0))
(assert (= (/ 100 1) r_t2t3_0))
(assert (= (/ 1 3) fee_t2t3))
(assert (= (/ 100 1) l_t3t4_0))
(assert (= (/ 100 1) r_t3t4_0))
(assert (= (/ 1 3) fee_t3t4))
(assert (= aleks_t0_0 (/ 100 1)))
(assert (= aleks_t1_0 (/ 0 1)))
(assert (= aleks_t2_0 (/ 0 1)))
(assert (= aleks_t3_0 (/ 0 1)))
(assert (= aleks_t4_0 (/ 0 1)))
(assert (>= aleks_t0_0 (/ 0 1)))
(assert (>= aleks_t0_1 (/ 0 1)))
(assert (>= aleks_t0_2 (/ 0 1)))
(assert (>= aleks_t0_3 (/ 0 1)))
(assert (>= aleks_t1_0 (/ 0 1)))
(assert (>= aleks_t1_1 (/ 0 1)))
(assert (>= aleks_t1_2 (/ 0 1)))
(assert (>= aleks_t1_3 (/ 0 1)))
(assert (>= aleks_t2_0 (/ 0 1)))
(assert (>= aleks_t2_1 (/ 0 1)))
(assert (>= aleks_t2_2 (/ 0 1)))
(assert (>= aleks_t2_3 (/ 0 1)))
(assert (>= aleks_t3_0 (/ 0 1)))
(assert (>= aleks_t3_1 (/ 0 1)))
(assert (>= aleks_t3_2 (/ 0 1)))
(assert (>= aleks_t3_3 (/ 0 1)))
(assert (>= aleks_t4_0 (/ 0 1)))
(assert (>= aleks_t4_1 (/ 0 1)))
(assert (>= aleks_t4_2 (/ 0 1)))
(assert (>= aleks_t4_3 (/ 0 1)))
(assert (= payout_1 (/ (* (* from_1 (- (/ 1 1) fee_t1t2)) r_t1t2_0) (+ (* from_1 (- (/ 1 1) fee_t1t2)) l_t1t2_0))))
(assert (ite
  (and (>= to_1 0) (<= to_1 payout_1))
  (and
    (= l_t1t2_1 (+ l_t1t2_0 from_1))
    (= r_t1t2_1 (- r_t1t2_0 payout_1))
    (= aleks_t1_1 (- aleks_t1_0 from_1))
    (= aleks_t2_1 (+ aleks_t2_0 payout_1))
  )
  (and
    (= l_t1t2_1 l_t1t2_0)
    (= r_t1t2_1 r_t1t2_0)
    (= aleks_t1_1 aleks_t1_0)
    (= aleks_t2_1 aleks_t2_0)
  )
))
(assert (= payout_2 (/ (* (* from_2 (- (/ 1 1) fee_t0t1)) r_t0t1_1) (+ (* from_2 (- (/ 1 1) fee_t0t1)) l_t0t1_1))))
(assert (ite
  (and (>= to_2 0) (<= to_2 payout_2))
  (and
    (= l_t0t1_2 (+ l_t0t1_1 from_2))
    (= r_t0t1_2 (- r_t0t1_1 payout_2))
    (= aleks_t0_2 (- aleks_t0_1 from_2))
    (= aleks_t1_2 (+ aleks_t1_1 payout_2))
  )
  (and
    (= l_t0t1_2 l_t0t1_1)
    (= r_t0t1_2 r_t0t1_1)
    (= aleks_t0_2 aleks_t0_1)
    (= aleks_t1_2 aleks_t1_1)
  )
))


(assert (= payout_3 (/ (* (* from_3 (- (/ 1 1) fee_t1t2)) l_t1t2_2) (+ (* from_3 (- (/ 1 1) fee_t1t2)) r_t1t2_2))))
(assert (ite
  (and (>= to_3 0) (<= to_3 payout_3))
  (and
    (= r_t1t2_3 (+ r_t1t2_2 from_3))
    (= l_t1t2_3 (- l_t1t2_2 payout_3))
    (= aleks_t2_3 (- aleks_t2_2 from_3))
    (= aleks_t1_3 (+ aleks_t1_2 payout_3))
  )
  (and
    (= r_t1t2_3 r_t1t2_2)
    (= l_t1t2_3 l_t1t2_2)
    (= aleks_t2_3 aleks_t2_2)
    (= aleks_t1_3 aleks_t1_2)
  )
))

(assert (>= to_1 0))
(assert (>= to_2 0))
(assert (>= to_3 0))
(assert (= l_t3t4_1 l_t3t4_0))
(assert (= l_t2t3_1 l_t2t3_0))
(assert (= l_t0t1_1 l_t0t1_0))
(assert (= r_t3t4_1 r_t3t4_0))
(assert (= r_t2t3_1 r_t2t3_0))
(assert (= r_t0t1_1 r_t0t1_0))
(assert (= aleks_t0_1 aleks_t0_0))
(assert (= aleks_t3_1 aleks_t3_0))
(assert (= aleks_t4_1 aleks_t4_0))
(assert (= l_t3t4_2 l_t3t4_1))
(assert (= l_t2t3_2 l_t2t3_1))
(assert (= l_t1t2_2 l_t1t2_1))
(assert (= r_t3t4_2 r_t3t4_1))
(assert (= r_t2t3_2 r_t2t3_1))
(assert (= r_t1t2_2 r_t1t2_1))
(assert (= aleks_t2_2 aleks_t2_1))
(assert (= aleks_t3_2 aleks_t3_1))
(assert (= aleks_t4_2 aleks_t4_1))
(assert (= l_t3t4_3 l_t3t4_2))
(assert (= l_t2t3_3 l_t2t3_2))
(assert (= l_t0t1_3 l_t0t1_2))
(assert (= r_t3t4_3 r_t3t4_2))
(assert (= r_t2t3_3 r_t2t3_2))
(assert (= r_t0t1_3 r_t0t1_2))
(assert (= aleks_t0_3 aleks_t0_2))
(assert (= aleks_t3_3 aleks_t3_2))
(assert (= aleks_t4_3 aleks_t4_2))
(assert (= (+ (+ (+ aleks_t0_3 aleks_t1_3) aleks_t2_3) aleks_t3_3) (/ 0 1)))
(check-sat)
